483 5
10 10 10 10 10 

0 0 0 0 0 0 3 2 14 26 
0 0 0 0 0 0 5 3 7 8 9 476 
4 0 0 1 0 0 2 6 4 
9 0 0 5 0 0 1 5 
2 0 0 6 0 0 2 12 10 
10 0 0 5 0 0 2 12 10 
1 0 0 4 0 0 2 12 10 
3 0 0 6 0 0 2 12 10 
3 0 0 6 0 0 2 12 11 
9 0 0 2 0 0 1 11 
1 0 0 7 0 0 1 13 
4 0 0 8 0 0 1 13 
0 0 0 0 0 0 1 38 
0 0 0 0 0 0 3 15 16 20 
2 0 0 0 1 0 3 21 19 284 
10 0 0 0 2 0 1 17 
5 0 0 0 6 0 1 18 
2 0 0 0 6 0 2 24 22 
2 0 0 0 4 0 2 24 23 
1 0 0 0 9 0 2 24 23 
7 0 0 0 10 0 1 22 
1 0 0 0 4 0 1 23 
9 0 0 0 4 0 1 25 
8 0 0 0 4 0 1 25 
0 0 0 0 0 0 1 38 
0 0 0 0 0 0 1 27 
5 0 0 1 0 0 1 28 
10 0 0 2 0 0 3 31 30 29 
5 0 0 8 0 0 3 36 34 32 
10 0 0 8 0 0 4 36 33 32 102 
4 0 0 4 0 0 3 36 33 32 
4 0 0 5 0 0 1 35 
5 0 0 7 0 0 1 35 
9 0 0 10 0 0 1 35 
3 0 0 2 0 0 1 37 
6 0 0 3 0 0 1 37 
0 0 0 0 0 0 1 38 
0 0 0 0 0 0 5 39 81 123 165 207 
0 0 0 0 0 0 2 40 44 
10 1 1 0 1 1 1 41 
10 5 6 0 7 6 2 43 42 
6 7 5 0 5 7 4 59 50 48 46 
9 6 4 0 2 4 3 50 48 45 
6 3 5 0 7 5 3 50 48 46 
9 6 4 0 4 2 1 46 
1 4 3 0 8 7 3 53 52 47 
10 5 3 0 2 6 2 62 49 
9 7 7 0 5 5 2 62 52 
3 4 6 0 7 5 1 51 
6 8 3 0 2 3 1 51 
7 4 6 0 6 5 3 63 61 54 
8 2 4 0 5 3 3 63 61 54 
7 6 3 0 4 5 4 63 61 57 55 
2 4 5 0 8 6 2 57 55 
7 9 8 0 5 2 2 66 56 
1 6 6 0 7 2 4 75 67 58 481 
5 4 1 0 2 8 2 67 58 
7 3 6 0 7 7 2 69 60 
3 6 10 0 2 1 2 65 62 
8 2 7 0 4 8 3 72 71 64 
1 5 6 0 4 6 3 75 71 64 
2 5 6 0 5 6 1 63 
10 7 2 0 4 6 2 70 67 
8 2 4 0 9 4 1 65 
5 7 4 0 7 6 2 79 68 
3 4 6 0 6 6 2 71 68 
10 4 1 0 4 1 3 78 72 71 
8 9 9 0 3 6 2 77 70 
10 4 6 0 5 3 3 78 77 73 
10 7 10 0 5 4 2 78 73 
3 2 5 0 5 3 2 77 74 
8 5 5 0 7 6 2 77 74 
8 5 2 0 3 6 1 74 
1 5 3 0 3 5 1 76 
4 7 5 0 9 6 1 76 
3 4 5 0 3 8 1 80 
8 6 6 0 7 7 1 80 
8 6 4 0 4 4 1 80 
2 4 8 0 7 9 1 80 
0 0 0 0 0 0 1 483 
0 0 0 0 0 0 2 82 84 
6 0 1 1 1 1 1 83 
5 0 2 4 1 5 2 86 85 
5 0 3 5 6 7 2 87 85 
6 0 6 4 5 5 4 97 90 89 88 
9 0 5 4 6 4 3 90 89 87 
6 0 6 7 5 8 1 88 
6 0 5 9 5 5 3 93 92 91 
6 0 5 2 4 9 2 94 92 
1 0 6 6 7 4 3 94 92 143 
1 0 8 4 3 3 2 98 94 
6 0 6 6 7 2 2 98 95 
6 0 7 6 4 6 2 98 95 
6 0 5 5 6 5 1 95 
2 0 6 4 6 3 1 96 
9 0 5 4 3 3 4 103 102 101 99 
3 0 4 2 7 5 1 98 
10 0 1 5 6 1 2 102 100 
1 0 5 3 3 2 1 100 
5 0 7 5 5 4 3 107 106 104 
4 0 3 8 7 8 3 107 106 104 
7 0 7 4 3 2 3 112 108 107 
6 0 4 4 5 4 3 112 111 108 
9 0 2 6 6 9 1 105 
6 0 6 3 5 6 2 112 108 
3 0 6 4 5 6 3 113 111 110 
1 0 4 8 5 4 2 113 110 
7 0 4 5 6 4 1 109 
1 0 2 7 4 4 2 114 110 
7 0 4 6 7 9 2 116 115 
2 0 8 9 5 4 2 116 115 
5 0 5 5 6 6 1 113 
5 0 8 3 6 2 1 114 
2 0 3 5 8 3 3 121 118 117 
7 0 7 9 7 3 2 118 117 
7 0 10 7 6 9 2 121 118 
8 0 5 2 5 6 1 119 
10 0 3 2 1 6 1 120 
4 0 6 5 8 6 1 120 
6 0 4 6 4 9 1 122 
1 0 6 6 1 8 1 122 
0 0 0 0 0 0 1 483 
0 0 0 0 0 0 2 124 128 
3 1 2 1 0 3 1 125 
8 9 4 5 0 4 2 127 126 
10 10 4 6 0 5 3 134 132 129 
9 10 2 5 0 5 3 145 132 130 
4 5 3 4 0 3 2 132 130 
5 4 3 6 0 7 1 130 
4 7 4 3 0 5 3 137 136 131 
5 6 4 6 0 8 2 146 133 
2 2 4 3 0 4 2 146 136 
1 3 5 5 0 4 1 135 
8 4 5 6 0 4 1 135 
2 2 4 3 0 5 3 148 144 138 
5 4 7 2 0 2 3 148 144 138 
2 6 7 2 0 4 5 151 148 144 141 140 
7 6 5 7 0 2 3 151 141 139 
10 4 10 4 0 5 1 140 
10 5 5 5 0 6 3 163 152 142 
2 4 4 6 0 8 2 152 142 
2 7 4 5 0 3 2 158 143 
1 3 6 5 0 7 3 162 156 147 
3 6 9 4 0 3 3 163 162 149 
7 10 6 7 0 3 3 153 148 478 
8 8 3 7 0 9 2 155 148 
10 1 3 3 0 6 1 149 
6 6 2 9 0 3 2 161 152 
8 5 5 6 0 4 1 150 
2 6 7 4 0 3 2 160 153 
4 3 8 8 0 7 3 161 160 155 
10 4 5 6 0 3 2 156 154 
1 4 5 8 0 6 2 161 155 
1 1 4 4 0 5 2 160 157 
10 4 9 4 0 7 1 157 
9 8 6 7 0 2 1 157 
6 7 5 5 0 10 1 159 
9 4 4 3 0 8 1 160 
6 5 3 4 0 4 1 164 
8 6 4 5 0 10 1 164 
10 2 7 7 0 5 1 164 
8 3 6 6 0 5 1 164 
1 5 7 4 0 3 1 164 
0 0 0 0 0 0 1 483 
0 0 0 0 0 0 2 166 167 
8 1 1 2 1 0 1 168 
6 6 3 4 4 0 1 168 
9 5 5 3 6 0 2 170 169 
8 5 5 8 8 0 4 175 174 173 171 
8 7 6 6 4 0 4 175 174 173 172 
10 8 2 6 7 0 1 172 
2 3 5 6 7 0 3 178 177 176 
6 6 6 2 4 0 3 178 177 176 
7 3 2 4 6 0 3 178 177 176 
9 3 4 4 4 0 1 176 
4 3 6 7 5 0 2 182 179 
7 4 9 4 5 0 2 182 179 
2 3 8 3 5 0 2 182 179 
8 7 8 5 3 0 1 180 
3 7 3 4 5 0 1 181 
10 5 7 4 3 0 2 184 183 
4 4 10 5 4 0 2 183 222 
9 5 4 10 6 0 3 187 186 185 
4 5 6 7 3 0 2 187 186 
5 4 4 10 2 0 3 193 190 188 
8 2 3 8 4 0 2 190 188 
9 8 7 4 2 0 3 193 192 189 
6 7 7 7 8 0 1 189 
7 8 5 5 5 0 2 195 191 
7 4 6 2 4 0 1 192 
9 4 4 5 2 0 2 196 194 
1 7 4 2 5 0 2 196 194 
4 5 5 5 4 0 2 197 195 
5 7 5 6 9 0 1 197 
3 6 1 2 5 0 1 196 
8 5 5 5 7 0 3 200 199 198 
8 6 7 4 5 0 3 200 199 198 
9 6 3 7 6 0 2 202 201 
6 7 4 5 5 0 2 202 201 
7 4 4 4 7 0 2 202 201 
5 4 9 6 7 0 2 205 203 
6 2 5 3 4 0 2 205 204 
1 4 3 5 7 0 1 204 
3 5 6 7 3 0 1 206 
10 5 3 4 9 0 1 206 
0 0 0 0 0 0 1 483 
0 0 0 0 0 0 4 208 210 212 215 
8 1 0 0 0 0 2 211 209 
3 5 0 0 0 0 2 217 213 
3 5 0 0 0 0 2 217 213 
10 5 0 0 0 0 2 217 216 
6 7 0 0 0 0 3 217 216 431 
10 5 0 0 0 0 1 214 
8 3 0 0 0 0 1 216 
7 7 0 0 0 0 1 216 
1 8 0 0 0 0 1 218 
9 4 0 0 0 0 1 218 
0 0 0 0 0 0 5 219 251 283 295 327 
0 0 0 0 0 0 3 220 221 238 
8 1 0 0 1 1 2 249 222 
5 7 0 0 6 1 2 249 222 
3 3 0 0 5 4 2 226 223 
3 8 0 0 5 4 2 230 224 
7 5 0 0 5 5 3 248 225 428 
8 4 0 0 7 5 2 236 227 
8 3 0 0 5 5 2 230 228 
2 5 0 0 3 3 1 228 
3 5 0 0 4 9 3 242 233 229 
3 3 0 0 3 3 2 239 231 
3 3 0 0 6 8 2 242 231 
1 6 0 0 5 5 1 232 
5 4 0 0 7 6 2 247 234 
3 4 0 0 6 3 2 247 235 
5 6 0 0 5 6 1 235 
6 4 0 0 5 8 3 246 241 237 
1 7 0 0 7 3 2 246 237 
10 2 0 0 6 8 3 245 243 240 
9 6 0 0 5 7 3 247 245 241 
2 5 0 0 4 6 1 240 
4 5 0 0 6 5 1 244 
8 4 0 0 5 7 1 243 
6 6 0 0 4 6 1 247 
8 9 0 0 5 1 1 250 
5 7 0 0 6 4 1 250 
4 5 0 0 5 6 1 250 
1 4 0 0 7 7 1 250 
5 3 0 0 4 7 1 250 
10 10 0 0 5 2 1 250 
3 6 0 0 3 5 1 250 
0 0 0 0 0 0 1 483 
0 0 0 0 0 0 6 252 277 278 279 280 281 
2 0 1 0 1 1 3 276 275 253 
6 0 5 0 4 9 3 274 273 254 
4 0 6 0 3 5 1 255 
10 0 3 0 4 4 2 272 256 
7 0 4 0 5 5 1 257 
2 0 5 0 6 3 2 271 258 
1 0 3 0 5 3 3 270 269 259 
2 0 6 0 4 3 1 260 
6 0 3 0 8 6 1 261 
9 0 7 0 5 5 2 268 262 
7 0 6 0 7 5 2 267 263 
10 0 1 0 3 3 1 264 
9 0 7 0 7 6 1 265 
9 0 5 0 6 6 2 266 291 
1 0 1 0 5 6 1 282 
6 0 5 0 5 5 1 282 
3 0 7 0 4 5 1 282 
8 0 6 0 5 3 1 282 
10 0 7 0 7 8 1 282 
10 0 3 0 2 4 1 282 
4 0 9 0 6 8 1 282 
3 0 2 0 7 4 1 282 
3 0 7 0 6 5 1 282 
9 0 3 0 3 9 1 282 
5 0 8 0 7 9 1 282 
3 0 8 0 4 4 1 282 
3 0 5 0 2 6 1 282 
8 0 5 0 4 5 1 282 
7 0 6 0 6 3 1 282 
2 0 6 0 9 2 1 282 
0 0 0 0 0 0 1 483 
0 0 0 0 0 0 3 284 287 289 
8 1 0 0 0 0 1 285 
9 8 0 0 0 0 2 293 286 
5 6 0 0 0 0 3 292 290 288 
9 8 0 0 0 0 2 291 290 
2 1 0 0 0 0 1 291 
10 2 0 0 0 0 2 290 329 
1 6 0 0 0 0 1 294 
7 4 0 0 0 0 1 294 
1 6 0 0 0 0 1 294 
5 8 0 0 0 0 1 294 
0 0 0 0 0 0 5 359 381 403 425 447 
0 0 0 0 0 0 3 296 297 307 
8 0 1 0 2 1 2 314 298 
10 0 9 0 4 2 2 314 298 
2 0 3 0 4 6 2 302 299 
5 0 4 0 4 10 2 305 300 
9 0 5 0 6 6 2 316 301 
3 0 4 0 10 7 2 312 303 
5 0 4 0 4 2 2 305 304 
7 0 4 0 5 8 1 304 
9 0 3 0 5 2 3 320 311 306 
5 0 3 0 5 4 2 320 306 
8 0 8 0 2 2 2 317 308 
7 0 4 0 8 10 3 316 311 310 
5 0 5 0 3 2 1 309 
4 0 6 0 4 8 1 310 
4 0 3 0 3 4 2 324 313 
10 0 4 0 7 3 2 324 313 
2 0 5 0 5 4 2 324 313 
5 0 5 0 2 6 3 325 319 315 
6 0 6 0 9 6 1 315 
1 0 6 0 3 4 3 323 322 318 
8 0 5 0 3 6 3 322 321 440 
1 0 6 0 7 5 1 318 
3 0 5 0 5 6 1 321 
5 0 4 0 9 7 1 322 
2 0 8 0 4 4 1 324 
3 0 5 0 6 6 1 326 
6 0 5 0 2 2 1 326 
1 0 5 0 4 5 1 326 
4 0 10 0 8 8 1 326 
9 0 5 0 7 4 1 326 
0 0 0 0 0 0 1 483 
0 0 0 0 0 0 6 328 353 354 355 356 357 
7 2 3 1 0 0 3 352 351 329 
6 4 5 10 0 0 3 350 349 330 
4 6 3 5 0 0 1 331 
4 6 3 6 0 0 2 348 332 
9 4 3 2 0 0 1 333 
4 7 2 7 0 0 2 347 334 
4 6 2 6 0 0 3 346 345 335 
4 7 1 9 0 0 1 336 
6 10 6 3 0 0 1 337 
6 3 4 2 0 0 3 344 343 338 
7 2 6 5 0 0 1 339 
10 4 10 6 0 0 1 340 
8 6 6 5 0 0 1 341 
4 3 6 4 0 0 1 342 
4 7 6 5 0 0 1 358 
1 3 7 6 0 0 1 358 
8 4 5 3 0 0 1 358 
6 5 7 5 0 0 1 358 
8 6 4 3 0 0 1 358 
2 4 7 4 0 0 1 358 
6 6 6 6 0 0 1 358 
1 5 5 9 0 0 1 358 
4 5 5 7 0 0 1 358 
3 7 4 5 0 0 2 358 408 
1 2 8 7 0 0 1 358 
5 8 7 3 0 0 1 358 
10 3 4 4 0 0 1 358 
5 4 5 2 0 0 1 358 
7 4 6 3 0 0 1 358 
4 7 4 7 0 0 1 358 
0 0 0 0 0 0 1 483 
0 0 0 0 0 0 3 360 361 363 
5 0 0 1 0 2 3 373 368 362 
1 0 0 5 0 3 5 374 373 369 368 366 
7 0 0 7 0 7 2 374 364 
10 0 0 4 0 5 4 373 369 368 366 
8 0 0 7 0 3 2 369 365 
9 0 0 5 0 3 1 366 
6 0 0 5 0 5 1 367 
6 0 0 4 0 5 4 377 376 372 370 
2 0 0 7 0 3 3 377 376 372 
10 0 0 5 0 10 2 377 370 
9 0 0 3 0 9 1 371 
7 0 0 4 0 7 2 375 437 
1 0 0 3 0 4 1 375 
8 0 0 3 0 2 1 376 
2 0 0 2 0 4 1 376 
6 0 0 6 0 4 1 378 
8 0 0 8 0 2 1 378 
8 0 0 9 0 10 1 379 
7 0 0 5 0 7 1 380 
8 0 0 7 0 5 1 380 
0 0 0 0 0 0 1 483 
0 0 0 0 0 0 1 382 
4 0 0 1 1 0 1 383 
5 0 0 2 3 0 2 385 384 
10 0 0 8 4 0 1 386 
7 0 0 5 3 0 1 386 
6 0 0 5 6 0 1 387 
8 0 0 7 3 0 2 389 388 
7 0 0 5 3 0 1 390 
7 0 0 2 8 0 1 390 
5 0 0 8 9 0 6 395 394 393 392 391 423 
8 0 0 5 6 0 5 401 400 398 397 396 
7 0 0 7 3 0 5 401 400 398 397 396 
3 0 0 6 4 0 5 401 400 398 397 396 
9 0 0 6 6 0 4 400 398 397 396 
1 0 0 3 6 0 3 401 400 396 
10 0 0 5 8 0 1 399 
5 0 0 3 7 0 1 399 
9 0 0 6 4 0 1 399 
3 0 0 9 4 0 1 402 
9 0 0 4 8 0 1 402 
1 0 0 3 4 0 1 402 
0 0 0 0 0 0 1 483 
0 0 0 0 0 0 1 404 
4 0 1 1 0 0 2 414 405 
2 0 5 7 0 0 2 408 406 
2 0 3 6 0 0 1 407 
6 0 6 6 0 0 2 418 409 
1 0 5 5 0 0 1 409 
5 0 3 7 0 0 4 416 413 412 410 
9 0 4 7 0 0 2 411 464 
8 0 4 4 0 0 2 422 415 
7 0 8 2 0 0 2 422 415 
5 0 5 4 0 0 2 422 415 
4 0 5 6 0 0 1 416 
2 0 10 7 0 0 2 421 417 
7 0 6 7 0 0 2 421 417 
10 0 5 6 0 0 2 420 419 
4 0 5 6 0 0 1 423 
10 0 7 3 0 0 1 424 
3 0 4 2 0 0 1 424 
5 0 7 4 0 0 1 424 
8 0 3 6 0 0 1 424 
3 0 4 4 0 0 1 424 
0 0 0 0 0 0 1 483 
0 0 0 0 0 0 4 426 427 432 437 
1 0 0 0 2 1 2 433 428 
1 0 0 0 5 7 4 439 436 433 430 
5 0 0 0 6 2 1 429 
8 0 0 0 5 5 3 445 439 430 
1 0 0 0 8 6 1 431 
1 0 0 0 7 6 2 435 434 
2 0 0 0 4 8 2 444 435 
8 0 0 0 4 3 1 434 
4 0 0 0 7 6 2 444 438 
1 0 0 0 3 7 1 438 
8 0 0 0 9 7 1 438 
10 0 0 0 4 5 1 439 
4 0 0 0 3 5 2 443 440 
10 0 0 0 6 6 3 443 440 455 
6 0 0 0 3 2 1 441 
7 0 0 0 5 4 1 442 
2 0 0 0 10 7 1 446 
3 0 0 0 2 6 1 446 
8 0 0 0 2 6 1 446 
2 0 0 0 5 1 1 446 
0 0 0 0 0 0 1 483 
0 0 0 0 0 0 4 448 449 451 453 
6 0 1 0 0 0 2 457 450 
6 0 4 0 0 0 2 457 452 
4 0 3 0 0 0 1 452 
10 0 6 0 0 0 1 452 
6 0 8 0 0 0 2 456 454 
1 0 7 0 0 0 2 456 455 
10 0 7 0 0 0 1 455 
7 0 3 0 0 0 1 458 
10 0 4 0 0 0 2 458 474 
4 0 7 0 0 0 1 458 
0 0 0 0 0 0 2 459 471 
0 0 0 0 0 0 4 460 463 465 466 
2 0 1 0 0 0 1 461 
1 0 7 0 0 0 2 469 462 
2 0 4 0 0 0 2 468 464 
1 0 4 0 0 0 2 468 467 
5 0 5 0 0 0 1 467 
5 0 5 0 0 0 1 468 
8 0 7 0 0 0 2 467 476 
2 0 7 0 0 0 1 470 
5 0 3 0 0 0 1 470 
2 0 7 0 0 0 1 470 
0 0 0 0 0 0 1 483 
0 0 0 0 0 0 2 472 474 
1 1 0 0 0 0 3 478 475 473 
8 7 0 0 0 0 3 481 480 476 
10 6 0 0 0 0 2 480 476 
3 4 0 0 0 0 1 476 
3 4 0 0 0 0 1 477 
7 5 0 0 0 0 1 479 
1 8 0 0 0 0 1 479 
7 5 0 0 0 0 1 482 
6 6 0 0 0 0 1 482 
3 4 0 0 0 0 1 482 
0 0 0 0 0 0 1 483 
0 0 0 0 0 0 0 
